p edge 150 3353
e 1 3
e 1 4
e 1 8
e 1 10
e 1 16
e 1 17
e 1 18
e 1 26
e 1 27
e 1 29
e 1 31
e 1 33
e 1 39
e 1 43
e 1 44
e 1 46
e 1 50
e 1 51
e 1 54
e 1 55
e 1 58
e 1 62
e 1 68
e 1 72
e 1 78
e 1 80
e 1 81
e 1 84
e 1 94
e 1 95
e 1 96
e 1 98
e 1 100
e 1 106
e 1 108
e 1 110
e 1 111
e 1 119
e 1 120
e 1 129
e 1 141
e 1 146
e 1 147
e 2 4
e 2 8
e 2 9
e 2 15
e 2 18
e 2 37
e 2 38
e 2 45
e 2 48
e 2 53
e 2 57
e 2 65
e 2 69
e 2 70
e 2 71
e 2 74
e 2 75
e 2 79
e 2 80
e 2 81
e 2 90
e 2 92
e 2 96
e 2 97
e 2 100
e 2 103
e 2 107
e 2 115
e 2 123
e 2 126
e 2 127
e 2 129
e 2 133
e 2 139
e 2 141
e 2 143
e 2 148
e 2 149
e 3 9
e 3 14
e 3 15
e 3 30
e 3 31
e 3 34
e 3 35
e 3 39
e 3 47
e 3 54
e 3 61
e 3 64
e 3 69
e 3 70
e 3 76
e 3 77
e 3 78
e 3 82
e 3 85
e 3 90
e 3 92
e 3 98
e 3 111
e 3 113
e 3 121
e 3 122
e 3 126
e 3 130
e 3 131
e 3 133
e 3 135
e 3 137
e 3 145
e 3 146
e 3 150
e 4 11
e 4 17
e 4 22
e 4 24
e 4 26
e 4 36
e 4 40
e 4 41
e 4 49
e 4 52
e 4 56
e 4 58
e 4 59
e 4 60
e 4 61
e 4 64
e 4 66
e 4 67
e 4 69
e 4 71
e 4 72
e 4 78
e 4 79
e 4 83
e 4 88
e 4 89
e 4 91
e 4 99
e 4 103
e 4 106
e 4 114
e 4 118
e 4 120
e 4 124
e 4 126
e 4 129
e 4 130
e 4 132
e 4 133
e 4 134
e 4 135
e 4 138
e 4 140
e 4 141
e 4 144
e 4 148
e 4 150
e 5 6
e 5 7
e 5 13
e 5 14
e 5 15
e 5 17
e 5 19
e 5 26
e 5 27
e 5 31
e 5 33
e 5 34
e 5 35
e 5 36
e 5 38
e 5 48
e 5 51
e 5 54
e 5 59
e 5 61
e 5 71
e 5 75
e 5 78
e 5 79
e 5 81
e 5 87
e 5 88
e 5 93
e 5 94
e 5 95
e 5 96
e 5 98
e 5 103
e 5 105
e 5 114
e 5 120
e 5 122
e 5 124
e 5 134
e 5 135
e 5 137
e 5 138
e 5 139
e 5 143
e 5 145
e 5 146
e 5 147
e 5 150
e 6 10
e 6 12
e 6 14
e 6 20
e 6 22
e 6 23
e 6 24
e 6 27
e 6 28
e 6 29
e 6 42
e 6 49
e 6 51
e 6 53
e 6 54
e 6 58
e 6 59
e 6 61
e 6 65
e 6 66
e 6 68
e 6 72
e 6 74
e 6 82
e 6 83
e 6 86
e 6 90
e 6 92
e 6 97
e 6 100
e 6 102
e 6 106
e 6 109
e 6 114
e 6 121
e 6 126
e 6 128
e 6 132
e 6 135
e 6 137
e 6 138
e 6 140
e 6 141
e 6 144
e 6 145
e 7 10
e 7 13
e 7 14
e 7 19
e 7 24
e 7 26
e 7 29
e 7 32
e 7 40
e 7 42
e 7 44
e 7 45
e 7 53
e 7 66
e 7 68
e 7 72
e 7 73
e 7 75
e 7 76
e 7 77
e 7 80
e 7 88
e 7 95
e 7 97
e 7 101
e 7 109
e 7 117
e 7 119
e 7 123
e 7 130
e 7 135
e 7 138
e 7 142
e 7 143
e 7 146
e 7 147
e 7 150
e 8 9
e 8 22
e 8 25
e 8 26
e 8 27
e 8 29
e 8 31
e 8 32
e 8 58
e 8 59
e 8 69
e 8 72
e 8 73
e 8 78
e 8 79
e 8 80
e 8 81
e 8 82
e 8 85
e 8 87
e 8 101
e 8 103
e 8 105
e 8 109
e 8 110
e 8 112
e 8 113
e 8 115
e 8 119
e 8 120
e 8 121
e 8 122
e 8 125
e 8 128
e 8 130
e 8 148
e 9 10
e 9 14
e 9 15
e 9 18
e 9 20
e 9 23
e 9 25
e 9 31
e 9 33
e 9 39
e 9 42
e 9 44
e 9 46
e 9 52
e 9 58
e 9 60
e 9 62
e 9 70
e 9 72
e 9 75
e 9 76
e 9 81
e 9 84
e 9 85
e 9 95
e 9 100
e 9 102
e 9 103
e 9 105
e 9 106
e 9 107
e 9 111
e 9 113
e 9 114
e 9 115
e 9 116
e 9 118
e 9 119
e 9 125
e 9 128
e 9 129
e 9 130
e 9 133
e 9 134
e 9 137
e 9 139
e 9 143
e 9 144
e 9 145
e 9 150
e 10 12
e 10 13
e 10 14
e 10 15
e 10 16
e 10 20
e 10 25
e 10 26
e 10 28
e 10 33
e 10 40
e 10 48
e 10 49
e 10 50
e 10 53
e 10 59
e 10 60
e 10 61
e 10 64
e 10 65
e 10 69
e 10 71
e 10 72
e 10 74
e 10 76
e 10 77
e 10 79
e 10 80
e 10 84
e 10 86
e 10 94
e 10 95
e 10 100
e 10 103
e 10 108
e 10 109
e 10 110
e 10 118
e 10 121
e 10 124
e 10 125
e 10 128
e 10 136
e 10 137
e 10 142
e 10 144
e 10 146
e 10 147
e 10 149
e 11 14
e 11 16
e 11 20
e 11 22
e 11 23
e 11 24
e 11 30
e 11 32
e 11 35
e 11 36
e 11 37
e 11 39
e 11 42
e 11 43
e 11 46
e 11 49
e 11 51
e 11 58
e 11 69
e 11 73
e 11 74
e 11 76
e 11 81
e 11 85
e 11 86
e 11 91
e 11 93
e 11 94
e 11 96
e 11 99
e 11 100
e 11 101
e 11 104
e 11 107
e 11 116
e 11 117
e 11 118
e 11 123
e 11 127
e 11 128
e 11 129
e 11 133
e 11 134
e 11 139
e 11 140
e 11 142
e 11 143
e 11 146
e 11 147
e 11 150
e 12 16
e 12 20
e 12 23
e 12 30
e 12 36
e 12 38
e 12 39
e 12 42
e 12 44
e 12 51
e 12 54
e 12 58
e 12 62
e 12 63
e 12 84
e 12 87
e 12 92
e 12 94
e 12 98
e 12 99
e 12 104
e 12 106
e 12 107
e 12 108
e 12 112
e 12 114
e 12 118
e 12 129
e 12 130
e 12 133
e 12 137
e 12 146
e 12 150
e 13 15
e 13 22
e 13 27
e 13 28
e 13 30
e 13 31
e 13 33
e 13 38
e 13 42
e 13 43
e 13 46
e 13 51
e 13 56
e 13 60
e 13 62
e 13 66
e 13 68
e 13 70
e 13 79
e 13 81
e 13 83
e 13 88
e 13 91
e 13 92
e 13 94
e 13 95
e 13 100
e 13 101
e 13 107
e 13 108
e 13 117
e 13 123
e 13 126
e 13 128
e 13 130
e 13 134
e 13 135
e 13 136
e 13 140
e 13 143
e 13 146
e 13 150
e 14 18
e 14 24
e 14 33
e 14 38
e 14 39
e 14 43
e 14 45
e 14 49
e 14 52
e 14 53
e 14 58
e 14 59
e 14 64
e 14 67
e 14 76
e 14 78
e 14 80
e 14 81
e 14 83
e 14 85
e 14 86
e 14 89
e 14 90
e 14 93
e 14 100
e 14 104
e 14 108
e 14 113
e 14 116
e 14 118
e 14 120
e 14 126
e 14 129
e 14 131
e 14 132
e 14 137
e 14 140
e 14 141
e 14 144
e 14 145
e 14 149
e 15 17
e 15 18
e 15 20
e 15 33
e 15 34
e 15 35
e 15 38
e 15 39
e 15 44
e 15 47
e 15 49
e 15 52
e 15 55
e 15 59
e 15 61
e 15 62
e 15 65
e 15 66
e 15 71
e 15 73
e 15 76
e 15 77
e 15 78
e 15 81
e 15 82
e 15 87
e 15 89
e 15 90
e 15 98
e 15 99
e 15 100
e 15 106
e 15 109
e 15 113
e 15 127
e 15 132
e 15 133
e 15 135
e 15 137
e 15 138
e 15 143
e 15 146
e 15 148
e 16 18
e 16 19
e 16 23
e 16 26
e 16 31
e 16 33
e 16 34
e 16 44
e 16 52
e 16 53
e 16 54
e 16 58
e 16 59
e 16 60
e 16 66
e 16 67
e 16 71
e 16 74
e 16 75
e 16 76
e 16 78
e 16 80
e 16 85
e 16 87
e 16 88
e 16 92
e 16 99
e 16 103
e 16 106
e 16 107
e 16 110
e 16 111
e 16 113
e 16 115
e 16 117
e 16 120
e 16 126
e 16 134
e 16 138
e 16 140
e 16 143
e 16 150
e 17 18
e 17 21
e 17 29
e 17 30
e 17 38
e 17 41
e 17 46
e 17 53
e 17 57
e 17 59
e 17 62
e 17 63
e 17 68
e 17 71
e 17 81
e 17 85
e 17 89
e 17 91
e 17 98
e 17 101
e 17 102
e 17 104
e 17 105
e 17 107
e 17 109
e 17 110
e 17 111
e 17 115
e 17 128
e 17 129
e 17 133
e 17 145
e 18 19
e 18 22
e 18 29
e 18 31
e 18 33
e 18 34
e 18 38
e 18 46
e 18 50
e 18 54
e 18 65
e 18 69
e 18 70
e 18 76
e 18 81
e 18 83
e 18 88
e 18 89
e 18 93
e 18 98
e 18 99
e 18 101
e 18 103
e 18 107
e 18 108
e 18 109
e 18 111
e 18 117
e 18 118
e 18 124
e 18 126
e 18 127
e 18 128
e 18 129
e 18 130
e 18 134
e 18 138
e 18 139
e 18 144
e 18 146
e 18 147
e 19 21
e 19 22
e 19 23
e 19 27
e 19 28
e 19 38
e 19 42
e 19 45
e 19 47
e 19 51
e 19 53
e 19 66
e 19 67
e 19 68
e 19 74
e 19 75
e 19 76
e 19 78
e 19 79
e 19 82
e 19 85
e 19 90
e 19 93
e 19 95
e 19 96
e 19 97
e 19 100
e 19 101
e 19 103
e 19 106
e 19 121
e 19 122
e 19 125
e 19 129
e 19 134
e 19 145
e 19 146
e 19 147
e 19 150
e 20 22
e 20 25
e 20 28
e 20 32
e 20 36
e 20 38
e 20 54
e 20 58
e 20 60
e 20 62
e 20 65
e 20 67
e 20 69
e 20 70
e 20 73
e 20 75
e 20 76
e 20 85
e 20 86
e 20 90
e 20 94
e 20 99
e 20 103
e 20 106
e 20 107
e 20 114
e 20 115
e 20 122
e 20 125
e 20 128
e 20 130
e 20 138
e 20 143
e 20 146
e 20 148
e 21 28
e 21 31
e 21 38
e 21 44
e 21 47
e 21 56
e 21 58
e 21 60
e 21 62
e 21 64
e 21 68
e 21 73
e 21 74
e 21 76
e 21 80
e 21 83
e 21 87
e 21 88
e 21 89
e 21 92
e 21 107
e 21 109
e 21 110
e 21 113
e 21 114
e 21 117
e 21 119
e 21 121
e 21 122
e 21 124
e 21 125
e 21 127
e 21 128
e 21 130
e 21 132
e 21 134
e 21 137
e 21 140
e 21 141
e 21 144
e 21 150
e 22 23
e 22 26
e 22 28
e 22 34
e 22 41
e 22 43
e 22 46
e 22 47
e 22 48
e 22 50
e 22 55
e 22 56
e 22 60
e 22 61
e 22 63
e 22 64
e 22 65
e 22 66
e 22 67
e 22 69
e 22 71
e 22 76
e 22 78
e 22 79
e 22 81
e 22 83
e 22 98
e 22 104
e 22 108
e 22 109
e 22 114
e 22 116
e 22 118
e 22 120
e 22 121
e 22 123
e 22 129
e 22 130
e 22 136
e 22 140
e 22 145
e 22 147
e 22 148
e 22 149
e 23 34
e 23 35
e 23 37
e 23 47
e 23 58
e 23 61
e 23 63
e 23 64
e 23 65
e 23 66
e 23 70
e 23 71
e 23 74
e 23 77
e 23 78
e 23 79
e 23 81
e 23 86
e 23 87
e 23 89
e 23 90
e 23 95
e 23 97
e 23 108
e 23 112
e 23 113
e 23 115
e 23 118
e 23 120
e 23 123
e 23 125
e 23 129
e 23 134
e 23 135
e 23 137
e 23 139
e 23 141
e 23 142
e 23 148
e 24 28
e 24 30
e 24 32
e 24 35
e 24 37
e 24 39
e 24 43
e 24 47
e 24 49
e 24 51
e 24 52
e 24 54
e 24 55
e 24 56
e 24 58
e 24 61
e 24 63
e 24 70
e 24 71
e 24 74
e 24 75
e 24 77
e 24 82
e 24 85
e 24 88
e 24 97
e 24 104
e 24 105
e 24 118
e 24 128
e 24 130
e 24 131
e 24 132
e 24 133
e 24 137
e 24 143
e 24 147
e 24 149
e 25 34
e 25 37
e 25 38
e 25 40
e 25 44
e 25 49
e 25 51
e 25 52
e 25 56
e 25 67
e 25 69
e 25 71
e 25 74
e 25 75
e 25 76
e 25 81
e 25 85
e 25 89
e 25 90
e 25 91
e 25 96
e 25 99
e 25 104
e 25 105
e 25 106
e 25 113
e 25 121
e 25 122
e 25 123
e 25 126
e 25 127
e 25 129
e 25 130
e 25 133
e 25 134
e 25 136
e 25 137
e 25 139
e 25 140
e 25 141
e 25 146
e 25 147
e 25 149
e 25 150
e 26 28
e 26 38
e 26 40
e 26 44
e 26 57
e 26 60
e 26 62
e 26 63
e 26 68
e 26 70
e 26 73
e 26 76
e 26 78
e 26 79
e 26 83
e 26 85
e 26 89
e 26 93
e 26 94
e 26 95
e 26 98
e 26 110
e 26 112
e 26 126
e 26 129
e 26 130
e 26 135
e 26 140
e 26 148
e 27 31
e 27 34
e 27 37
e 27 39
e 27 40
e 27 46
e 27 52
e 27 53
e 27 55
e 27 56
e 27 59
e 27 79
e 27 80
e 27 89
e 27 97
e 27 99
e 27 100
e 27 106
e 27 108
e 27 115
e 27 117
e 27 127
e 27 132
e 27 133
e 27 147
e 28 30
e 28 33
e 28 35
e 28 37
e 28 39
e 28 41
e 28 42
e 28 44
e 28 47
e 28 48
e 28 50
e 28 61
e 28 63
e 28 65
e 28 74
e 28 86
e 28 91
e 28 94
e 28 100
e 28 101
e 28 103
e 28 104
e 28 105
e 28 113
e 28 116
e 28 123
e 28 126
e 28 129
e 28 130
e 28 135
e 28 147
e 28 150
e 29 31
e 29 32
e 29 35
e 29 37
e 29 39
e 29 48
e 29 49
e 29 66
e 29 69
e 29 71
e 29 72
e 29 80
e 29 93
e 29 97
e 29 100
e 29 102
e 29 106
e 29 107
e 29 112
e 29 119
e 29 126
e 29 134
e 29 135
e 29 138
e 29 140
e 29 143
e 29 145
e 29 148
e 29 149
e 30 34
e 30 38
e 30 44
e 30 46
e 30 52
e 30 53
e 30 56
e 30 60
e 30 61
e 30 62
e 30 65
e 30 66
e 30 67
e 30 73
e 30 74
e 30 75
e 30 80
e 30 82
e 30 88
e 30 90
e 30 92
e 30 99
e 30 103
e 30 106
e 30 112
e 30 117
e 30 119
e 30 121
e 30 127
e 30 144
e 30 149
e 31 35
e 31 36
e 31 46
e 31 54
e 31 58
e 31 59
e 31 65
e 31 68
e 31 73
e 31 74
e 31 80
e 31 90
e 31 91
e 31 103
e 31 104
e 31 105
e 31 106
e 31 109
e 31 110
e 31 111
e 31 112
e 31 114
e 31 119
e 31 124
e 31 126
e 31 127
e 31 132
e 31 135
e 31 139
e 31 140
e 31 141
e 31 145
e 31 150
e 32 34
e 32 39
e 32 46
e 32 54
e 32 63
e 32 65
e 32 66
e 32 71
e 32 74
e 32 75
e 32 80
e 32 82
e 32 101
e 32 103
e 32 105
e 32 112
e 32 113
e 32 115
e 32 116
e 32 118
e 32 124
e 32 125
e 32 132
e 32 137
e 32 142
e 33 37
e 33 39
e 33 43
e 33 44
e 33 45
e 33 47
e 33 50
e 33 54
e 33 57
e 33 64
e 33 65
e 33 71
e 33 73
e 33 76
e 33 77
e 33 79
e 33 84
e 33 86
e 33 89
e 33 91
e 33 92
e 33 93
e 33 94
e 33 95
e 33 96
e 33 101
e 33 103
e 33 105
e 33 114
e 33 121
e 33 129
e 33 133
e 33 141
e 33 142
e 33 143
e 33 144
e 33 145
e 33 146
e 33 147
e 34 37
e 34 51
e 34 52
e 34 57
e 34 58
e 34 60
e 34 69
e 34 70
e 34 72
e 34 74
e 34 77
e 34 79
e 34 81
e 34 84
e 34 89
e 34 90
e 34 95
e 34 97
e 34 100
e 34 101
e 34 102
e 34 104
e 34 108
e 34 113
e 34 114
e 34 116
e 34 123
e 34 126
e 34 127
e 34 128
e 34 130
e 34 131
e 34 132
e 34 135
e 34 140
e 34 148
e 34 150
e 35 36
e 35 37
e 35 42
e 35 43
e 35 45
e 35 48
e 35 53
e 35 56
e 35 57
e 35 59
e 35 61
e 35 65
e 35 67
e 35 70
e 35 74
e 35 75
e 35 77
e 35 78
e 35 80
e 35 81
e 35 83
e 35 84
e 35 85
e 35 86
e 35 88
e 35 91
e 35 92
e 35 100
e 35 102
e 35 107
e 35 110
e 35 112
e 35 115
e 35 116
e 35 118
e 35 125
e 35 134
e 35 135
e 35 137
e 35 149
e 36 37
e 36 43
e 36 46
e 36 51
e 36 53
e 36 56
e 36 57
e 36 58
e 36 65
e 36 68
e 36 71
e 36 76
e 36 79
e 36 81
e 36 88
e 36 90
e 36 96
e 36 99
e 36 110
e 36 120
e 36 127
e 36 131
e 36 139
e 36 142
e 36 145
e 36 150
e 37 40
e 37 42
e 37 47
e 37 51
e 37 53
e 37 54
e 37 55
e 37 66
e 37 72
e 37 78
e 37 80
e 37 81
e 37 87
e 37 94
e 37 95
e 37 98
e 37 99
e 37 101
e 37 104
e 37 111
e 37 117
e 37 121
e 37 123
e 37 125
e 37 128
e 37 129
e 37 130
e 37 135
e 37 138
e 37 141
e 37 148
e 37 150
e 38 46
e 38 47
e 38 52
e 38 56
e 38 57
e 38 58
e 38 66
e 38 67
e 38 72
e 38 75
e 38 82
e 38 91
e 38 96
e 38 97
e 38 99
e 38 100
e 38 102
e 38 103
e 38 104
e 38 105
e 38 109
e 38 110
e 38 115
e 38 116
e 38 118
e 38 126
e 38 137
e 38 140
e 38 142
e 38 144
e 39 40
e 39 44
e 39 46
e 39 48
e 39 53
e 39 60
e 39 66
e 39 67
e 39 73
e 39 87
e 39 89
e 39 90
e 39 98
e 39 103
e 39 106
e 39 114
e 39 119
e 39 121
e 39 127
e 39 129
e 39 135
e 39 137
e 39 141
e 39 146
e 39 147
e 39 150
e 40 41
e 40 43
e 40 45
e 40 46
e 40 48
e 40 52
e 40 53
e 40 61
e 40 68
e 40 73
e 40 75
e 40 76
e 40 78
e 40 85
e 40 86
e 40 91
e 40 92
e 40 97
e 40 100
e 40 106
e 40 112
e 40 116
e 40 118
e 40 122
e 40 125
e 40 126
e 40 129
e 40 130
e 40 131
e 40 135
e 40 140
e 41 42
e 41 46
e 41 49
e 41 54
e 41 55
e 41 57
e 41 58
e 41 62
e 41 68
e 41 70
e 41 75
e 41 76
e 41 78
e 41 79
e 41 80
e 41 84
e 41 88
e 41 90
e 41 95
e 41 109
e 41 110
e 41 112
e 41 115
e 41 116
e 41 118
e 41 124
e 41 125
e 41 126
e 41 128
e 41 129
e 41 134
e 41 135
e 41 140
e 41 148
e 41 149
e 42 44
e 42 52
e 42 57
e 42 61
e 42 64
e 42 65
e 42 71
e 42 74
e 42 75
e 42 78
e 42 79
e 42 85
e 42 88
e 42 93
e 42 94
e 42 95
e 42 100
e 42 102
e 42 107
e 42 108
e 42 110
e 42 111
e 42 114
e 42 115
e 42 116
e 42 118
e 42 121
e 42 122
e 42 123
e 42 125
e 42 129
e 42 136
e 42 138
e 42 139
e 42 141
e 42 143
e 42 144
e 42 145
e 43 45
e 43 47
e 43 52
e 43 58
e 43 61
e 43 66
e 43 71
e 43 79
e 43 80
e 43 85
e 43 88
e 43 90
e 43 92
e 43 100
e 43 101
e 43 103
e 43 109
e 43 110
e 43 112
e 43 120
e 43 130
e 43 132
e 43 137
e 43 139
e 43 142
e 43 145
e 44 49
e 44 52
e 44 53
e 44 55
e 44 57
e 44 60
e 44 66
e 44 67
e 44 70
e 44 72
e 44 76
e 44 77
e 44 79
e 44 83
e 44 87
e 44 89
e 44 91
e 44 92
e 44 101
e 44 106
e 44 107
e 44 109
e 44 111
e 44 116
e 44 120
e 44 124
e 44 129
e 44 142
e 44 148
e 45 49
e 45 50
e 45 52
e 45 53
e 45 54
e 45 56
e 45 57
e 45 59
e 45 61
e 45 69
e 45 72
e 45 73
e 45 74
e 45 76
e 45 88
e 45 95
e 45 107
e 45 109
e 45 116
e 45 117
e 45 118
e 45 120
e 45 122
e 45 123
e 45 128
e 45 129
e 45 133
e 45 135
e 45 136
e 45 137
e 45 142
e 45 143
e 45 144
e 46 50
e 46 52
e 46 58
e 46 60
e 46 61
e 46 62
e 46 63
e 46 67
e 46 68
e 46 71
e 46 74
e 46 75
e 46 79
e 46 81
e 46 82
e 46 85
e 46 87
e 46 91
e 46 94
e 46 96
e 46 101
e 46 104
e 46 106
e 46 108
e 46 110
e 46 113
e 46 115
e 46 119
e 46 120
e 46 122
e 46 123
e 46 124
e 46 125
e 46 127
e 46 128
e 46 139
e 46 141
e 47 52
e 47 57
e 47 60
e 47 62
e 47 68
e 47 71
e 47 74
e 47 76
e 47 81
e 47 86
e 47 91
e 47 94
e 47 98
e 47 105
e 47 107
e 47 108
e 47 112
e 47 113
e 47 122
e 47 124
e 47 125
e 47 133
e 47 134
e 47 141
e 47 148
e 48 51
e 48 54
e 48 60
e 48 63
e 48 64
e 48 65
e 48 70
e 48 75
e 48 76
e 48 78
e 48 79
e 48 82
e 48 85
e 48 86
e 48 91
e 48 92
e 48 94
e 48 104
e 48 106
e 48 110
e 48 111
e 48 115
e 48 117
e 48 118
e 48 119
e 48 121
e 48 122
e 48 126
e 48 127
e 48 128
e 48 129
e 48 132
e 48 134
e 48 135
e 48 140
e 48 145
e 48 150
e 49 50
e 49 56
e 49 57
e 49 75
e 49 77
e 49 79
e 49 81
e 49 84
e 49 85
e 49 90
e 49 92
e 49 97
e 49 98
e 49 100
e 49 102
e 49 109
e 49 115
e 49 116
e 49 117
e 49 118
e 49 119
e 49 121
e 49 123
e 49 124
e 49 126
e 49 134
e 49 135
e 49 136
e 49 140
e 49 146
e 49 147
e 50 54
e 50 57
e 50 62
e 50 64
e 50 65
e 50 69
e 50 73
e 50 74
e 50 75
e 50 85
e 50 88
e 50 90
e 50 94
e 50 97
e 50 101
e 50 102
e 50 103
e 50 104
e 50 106
e 50 109
e 50 110
e 50 111
e 50 113
e 50 115
e 50 123
e 50 134
e 50 136
e 50 140
e 50 141
e 50 143
e 50 145
e 50 147
e 50 149
e 51 54
e 51 59
e 51 63
e 51 64
e 51 66
e 51 67
e 51 69
e 51 76
e 51 77
e 51 89
e 51 90
e 51 92
e 51 100
e 51 103
e 51 108
e 51 109
e 51 110
e 51 113
e 51 115
e 51 117
e 51 126
e 51 127
e 51 140
e 51 142
e 51 143
e 51 145
e 51 148
e 51 149
e 52 57
e 52 61
e 52 63
e 52 65
e 52 66
e 52 67
e 52 71
e 52 76
e 52 78
e 52 79
e 52 85
e 52 90
e 52 92
e 52 98
e 52 99
e 52 100
e 52 104
e 52 106
e 52 107
e 52 108
e 52 115
e 52 116
e 52 117
e 52 123
e 52 125
e 52 131
e 52 132
e 52 134
e 52 137
e 52 139
e 52 143
e 52 145
e 53 56
e 53 60
e 53 62
e 53 66
e 53 68
e 53 74
e 53 78
e 53 84
e 53 86
e 53 87
e 53 88
e 53 90
e 53 96
e 53 101
e 53 103
e 53 105
e 53 114
e 53 116
e 53 120
e 53 121
e 53 123
e 53 124
e 53 128
e 53 130
e 53 136
e 53 140
e 53 146
e 54 56
e 54 59
e 54 62
e 54 66
e 54 72
e 54 76
e 54 83
e 54 84
e 54 86
e 54 88
e 54 93
e 54 96
e 54 99
e 54 101
e 54 105
e 54 109
e 54 119
e 54 120
e 54 121
e 54 129
e 54 130
e 54 143
e 54 144
e 54 147
e 54 149
e 54 150
e 55 56
e 55 59
e 55 69
e 55 70
e 55 71
e 55 72
e 55 73
e 55 78
e 55 79
e 55 81
e 55 83
e 55 84
e 55 85
e 55 88
e 55 93
e 55 99
e 55 101
e 55 103
e 55 104
e 55 109
e 55 118
e 55 119
e 55 129
e 55 131
e 55 132
e 55 135
e 55 137
e 55 138
e 55 145
e 55 149
e 55 150
e 56 58
e 56 62
e 56 70
e 56 74
e 56 75
e 56 85
e 56 88
e 56 93
e 56 95
e 56 96
e 56 98
e 56 101
e 56 106
e 56 108
e 56 109
e 56 111
e 56 112
e 56 115
e 56 118
e 56 122
e 56 127
e 56 128
e 56 129
e 56 130
e 56 134
e 56 135
e 56 136
e 56 139
e 56 142
e 56 149
e 57 61
e 57 66
e 57 71
e 57 73
e 57 74
e 57 76
e 57 77
e 57 80
e 57 81
e 57 84
e 57 85
e 57 86
e 57 87
e 57 88
e 57 92
e 57 93
e 57 95
e 57 102
e 57 107
e 57 109
e 57 113
e 57 114
e 57 119
e 57 124
e 57 125
e 57 126
e 57 127
e 57 131
e 57 132
e 57 136
e 57 139
e 57 142
e 57 143
e 57 144
e 57 146
e 57 148
e 58 59
e 58 60
e 58 63
e 58 67
e 58 70
e 58 71
e 58 79
e 58 86
e 58 90
e 58 92
e 58 95
e 58 98
e 58 103
e 58 108
e 58 112
e 58 115
e 58 116
e 58 117
e 58 118
e 58 121
e 58 122
e 58 125
e 58 126
e 58 128
e 58 130
e 58 147
e 58 149
e 59 60
e 59 61
e 59 64
e 59 68
e 59 69
e 59 71
e 59 72
e 59 74
e 59 76
e 59 78
e 59 80
e 59 83
e 59 84
e 59 89
e 59 93
e 59 98
e 59 100
e 59 107
e 59 113
e 59 120
e 59 128
e 59 132
e 59 134
e 59 135
e 59 136
e 59 142
e 59 144
e 59 145
e 59 149
e 60 64
e 60 66
e 60 68
e 60 72
e 60 73
e 60 74
e 60 76
e 60 77
e 60 79
e 60 81
e 60 83
e 60 84
e 60 88
e 60 95
e 60 96
e 60 97
e 60 100
e 60 101
e 60 103
e 60 111
e 60 112
e 60 116
e 60 117
e 60 118
e 60 125
e 60 127
e 60 128
e 60 131
e 60 132
e 60 135
e 60 136
e 60 138
e 60 142
e 60 143
e 60 147
e 61 66
e 61 72
e 61 77
e 61 97
e 61 104
e 61 109
e 61 111
e 61 113
e 61 114
e 61 118
e 61 122
e 61 125
e 61 126
e 61 127
e 61 131
e 61 135
e 61 139
e 61 147
e 61 148
e 61 149
e 62 76
e 62 77
e 62 78
e 62 83
e 62 84
e 62 85
e 62 93
e 62 94
e 62 97
e 62 103
e 62 104
e 62 109
e 62 116
e 62 128
e 62 135
e 62 136
e 62 137
e 62 138
e 62 139
e 62 145
e 62 146
e 63 79
e 63 80
e 63 90
e 63 91
e 63 92
e 63 95
e 63 100
e 63 102
e 63 109
e 63 110
e 63 111
e 63 116
e 63 120
e 63 122
e 63 126
e 63 130
e 63 133
e 63 142
e 63 144
e 63 145
e 64 65
e 64 66
e 64 69
e 64 79
e 64 80
e 64 85
e 64 86
e 64 88
e 64 89
e 64 91
e 64 103
e 64 104
e 64 108
e 64 111
e 64 116
e 64 125
e 64 129
e 64 131
e 64 133
e 64 139
e 64 141
e 64 142
e 64 145
e 64 147
e 65 69
e 65 72
e 65 79
e 65 81
e 65 88
e 65 93
e 65 94
e 65 99
e 65 103
e 65 107
e 65 115
e 65 118
e 65 119
e 65 124
e 65 133
e 65 136
e 65 141
e 65 145
e 65 148
e 65 149
e 66 70
e 66 71
e 66 72
e 66 73
e 66 74
e 66 75
e 66 78
e 66 80
e 66 81
e 66 85
e 66 92
e 66 94
e 66 95
e 66 96
e 66 102
e 66 105
e 66 119
e 66 122
e 66 124
e 66 133
e 66 135
e 66 145
e 66 148
e 67 68
e 67 69
e 67 74
e 67 75
e 67 80
e 67 82
e 67 84
e 67 90
e 67 91
e 67 96
e 67 98
e 67 101
e 67 103
e 67 106
e 67 115
e 67 116
e 67 121
e 67 123
e 67 132
e 67 136
e 67 138
e 67 144
e 67 145
e 67 146
e 67 148
e 67 149
e 67 150
e 68 71
e 68 72
e 68 73
e 68 75
e 68 77
e 68 78
e 68 79
e 68 82
e 68 88
e 68 89
e 68 99
e 68 101
e 68 107
e 68 110
e 68 114
e 68 115
e 68 117
e 68 124
e 68 126
e 68 127
e 68 135
e 68 136
e 68 141
e 68 142
e 68 145
e 69 71
e 69 73
e 69 75
e 69 79
e 69 82
e 69 85
e 69 86
e 69 89
e 69 92
e 69 97
e 69 98
e 69 104
e 69 106
e 69 107
e 69 110
e 69 111
e 69 114
e 69 118
e 69 126
e 69 131
e 69 135
e 69 142
e 69 145
e 70 71
e 70 72
e 70 73
e 70 74
e 70 75
e 70 76
e 70 77
e 70 83
e 70 86
e 70 88
e 70 89
e 70 93
e 70 97
e 70 98
e 70 100
e 70 106
e 70 110
e 70 111
e 70 113
e 70 115
e 70 119
e 70 120
e 70 124
e 70 125
e 70 126
e 70 127
e 70 129
e 70 132
e 70 135
e 70 148
e 70 150
e 71 72
e 71 75
e 71 78
e 71 83
e 71 84
e 71 85
e 71 92
e 71 95
e 71 96
e 71 99
e 71 101
e 71 102
e 71 104
e 71 119
e 71 120
e 71 121
e 71 122
e 71 129
e 71 136
e 71 142
e 71 144
e 71 145
e 71 149
e 71 150
e 72 74
e 72 75
e 72 79
e 72 80
e 72 82
e 72 85
e 72 90
e 72 92
e 72 94
e 72 95
e 72 96
e 72 98
e 72 99
e 72 100
e 72 102
e 72 107
e 72 108
e 72 110
e 72 117
e 72 119
e 72 121
e 72 123
e 72 126
e 72 127
e 72 131
e 72 134
e 72 136
e 72 139
e 72 146
e 72 148
e 73 75
e 73 76
e 73 78
e 73 87
e 73 88
e 73 92
e 73 96
e 73 99
e 73 101
e 73 108
e 73 110
e 73 111
e 73 122
e 73 129
e 73 130
e 73 134
e 73 137
e 73 140
e 73 141
e 73 144
e 73 147
e 73 149
e 74 75
e 74 76
e 74 85
e 74 86
e 74 90
e 74 94
e 74 95
e 74 96
e 74 97
e 74 99
e 74 100
e 74 102
e 74 103
e 74 105
e 74 106
e 74 110
e 74 111
e 74 115
e 74 117
e 74 119
e 74 120
e 74 122
e 74 123
e 74 125
e 74 126
e 74 127
e 74 128
e 74 132
e 74 134
e 74 135
e 74 136
e 74 141
e 74 142
e 74 146
e 74 147
e 74 148
e 75 78
e 75 79
e 75 80
e 75 85
e 75 88
e 75 89
e 75 91
e 75 92
e 75 93
e 75 98
e 75 100
e 75 101
e 75 103
e 75 107
e 75 108
e 75 109
e 75 114
e 75 115
e 75 116
e 75 117
e 75 120
e 75 122
e 75 126
e 75 132
e 75 133
e 75 136
e 75 139
e 75 143
e 75 147
e 75 150
e 76 77
e 76 78
e 76 80
e 76 84
e 76 86
e 76 100
e 76 101
e 76 104
e 76 105
e 76 108
e 76 109
e 76 110
e 76 112
e 76 116
e 76 119
e 76 121
e 76 122
e 76 126
e 76 131
e 76 132
e 76 134
e 76 136
e 76 137
e 76 139
e 76 141
e 76 143
e 76 146
e 76 149
e 77 79
e 77 80
e 77 85
e 77 86
e 77 87
e 77 88
e 77 91
e 77 98
e 77 100
e 77 104
e 77 105
e 77 109
e 77 111
e 77 112
e 77 114
e 77 123
e 77 124
e 77 127
e 77 130
e 77 139
e 77 143
e 78 83
e 78 89
e 78 90
e 78 91
e 78 94
e 78 101
e 78 103
e 78 108
e 78 109
e 78 114
e 78 116
e 78 117
e 78 121
e 78 125
e 78 131
e 78 134
e 78 135
e 78 140
e 78 141
e 78 143
e 78 147
e 79 80
e 79 81
e 79 82
e 79 84
e 79 86
e 79 92
e 79 96
e 79 97
e 79 99
e 79 100
e 79 102
e 79 104
e 79 105
e 79 117
e 79 120
e 79 128
e 79 129
e 79 131
e 79 134
e 79 135
e 79 140
e 79 144
e 80 81
e 80 88
e 80 97
e 80 98
e 80 99
e 80 101
e 80 103
e 80 106
e 80 108
e 80 115
e 80 121
e 80 124
e 80 127
e 80 129
e 80 133
e 80 134
e 80 136
e 80 138
e 80 139
e 80 140
e 80 141
e 80 144
e 80 149
e 81 88
e 81 92
e 81 97
e 81 100
e 81 107
e 81 108
e 81 112
e 81 114
e 81 117
e 81 120
e 81 126
e 81 128
e 81 132
e 81 133
e 81 137
e 81 138
e 81 140
e 81 145
e 81 147
e 81 149
e 82 83
e 82 93
e 82 94
e 82 95
e 82 108
e 82 110
e 82 111
e 82 113
e 82 114
e 82 120
e 82 123
e 82 124
e 82 129
e 82 132
e 82 147
e 82 149
e 83 89
e 83 91
e 83 92
e 83 94
e 83 98
e 83 101
e 83 102
e 83 105
e 83 110
e 83 111
e 83 113
e 83 115
e 83 116
e 83 120
e 83 122
e 83 123
e 83 129
e 83 134
e 83 136
e 83 137
e 83 140
e 84 85
e 84 93
e 84 95
e 84 100
e 84 104
e 84 105
e 84 110
e 84 113
e 84 114
e 84 120
e 84 125
e 84 126
e 84 127
e 84 129
e 84 131
e 84 133
e 84 138
e 84 144
e 84 148
e 84 149
e 85 87
e 85 90
e 85 91
e 85 96
e 85 101
e 85 102
e 85 104
e 85 105
e 85 109
e 85 110
e 85 114
e 85 116
e 85 121
e 85 122
e 85 125
e 85 129
e 85 130
e 85 131
e 85 133
e 85 134
e 85 144
e 85 145
e 85 146
e 85 150
e 86 88
e 86 89
e 86 90
e 86 93
e 86 96
e 86 97
e 86 100
e 86 101
e 86 104
e 86 107
e 86 115
e 86 119
e 86 122
e 86 124
e 86 126
e 86 131
e 86 134
e 86 136
e 86 137
e 86 139
e 86 141
e 86 143
e 86 144
e 86 147
e 87 95
e 87 99
e 87 102
e 87 103
e 87 106
e 87 108
e 87 111
e 87 115
e 87 122
e 87 123
e 87 125
e 87 128
e 87 130
e 87 131
e 87 134
e 87 141
e 87 142
e 87 143
e 87 144
e 87 146
e 87 149
e 88 92
e 88 93
e 88 102
e 88 109
e 88 117
e 88 121
e 88 122
e 88 123
e 88 124
e 88 125
e 88 129
e 88 133
e 88 135
e 88 136
e 88 140
e 88 141
e 88 142
e 88 146
e 88 148
e 88 150
e 89 92
e 89 94
e 89 96
e 89 98
e 89 100
e 89 103
e 89 104
e 89 106
e 89 112
e 89 115
e 89 117
e 89 119
e 89 123
e 89 125
e 89 129
e 89 134
e 89 136
e 89 139
e 89 146
e 90 93
e 90 96
e 90 98
e 90 100
e 90 105
e 90 107
e 90 109
e 90 117
e 90 118
e 90 119
e 90 129
e 90 130
e 90 133
e 90 134
e 90 140
e 90 142
e 90 145
e 91 94
e 91 102
e 91 108
e 91 110
e 91 115
e 91 120
e 91 121
e 91 127
e 91 128
e 91 134
e 91 136
e 91 137
e 91 142
e 91 143
e 91 144
e 91 146
e 91 148
e 91 150
e 92 95
e 92 96
e 92 98
e 92 103
e 92 105
e 92 108
e 92 110
e 92 111
e 92 113
e 92 117
e 92 120
e 92 121
e 92 124
e 92 127
e 92 128
e 92 132
e 92 133
e 92 135
e 92 144
e 92 148
e 92 150
e 93 96
e 93 99
e 93 111
e 93 114
e 93 121
e 93 129
e 93 130
e 93 132
e 93 134
e 93 136
e 93 140
e 93 141
e 93 144
e 93 147
e 93 149
e 93 150
e 94 95
e 94 96
e 94 97
e 94 100
e 94 107
e 94 108
e 94 111
e 94 114
e 94 116
e 94 120
e 94 125
e 94 126
e 94 128
e 94 131
e 94 133
e 94 138
e 94 145
e 95 96
e 95 97
e 95 99
e 95 100
e 95 101
e 95 103
e 95 104
e 95 105
e 95 106
e 95 107
e 95 111
e 95 112
e 95 117
e 95 121
e 95 124
e 95 125
e 95 126
e 95 129
e 95 142
e 95 145
e 95 150
e 96 102
e 96 106
e 96 109
e 96 113
e 96 118
e 96 119
e 96 129
e 96 130
e 96 131
e 96 134
e 96 146
e 96 147
e 96 148
e 97 98
e 97 102
e 97 103
e 97 106
e 97 107
e 97 109
e 97 112
e 97 116
e 97 122
e 97 128
e 97 130
e 97 131
e 97 132
e 97 133
e 97 135
e 97 136
e 97 137
e 97 139
e 97 146
e 97 148
e 98 99
e 98 104
e 98 105
e 98 108
e 98 111
e 98 113
e 98 114
e 98 116
e 98 124
e 98 128
e 98 131
e 98 140
e 98 146
e 98 150
e 99 102
e 99 104
e 99 112
e 99 114
e 99 122
e 99 126
e 99 128
e 99 129
e 99 136
e 99 138
e 99 140
e 99 143
e 99 144
e 99 145
e 99 147
e 99 149
e 100 103
e 100 105
e 100 106
e 100 111
e 100 120
e 100 123
e 100 126
e 100 130
e 100 132
e 100 137
e 100 139
e 100 140
e 100 145
e 100 150
e 101 111
e 101 112
e 101 117
e 101 125
e 101 127
e 101 128
e 101 129
e 101 130
e 101 132
e 101 134
e 101 135
e 101 136
e 101 140
e 101 146
e 102 103
e 102 107
e 102 111
e 102 112
e 102 113
e 102 114
e 102 116
e 102 118
e 102 125
e 102 126
e 102 129
e 102 132
e 102 135
e 102 136
e 102 142
e 102 144
e 102 148
e 102 150
e 103 107
e 103 108
e 103 112
e 103 116
e 103 120
e 103 121
e 103 123
e 103 125
e 103 126
e 103 128
e 103 132
e 103 135
e 103 138
e 103 141
e 103 148
e 103 149
e 104 105
e 104 106
e 104 107
e 104 109
e 104 113
e 104 114
e 104 115
e 104 116
e 104 117
e 104 121
e 104 126
e 104 127
e 104 128
e 104 135
e 104 142
e 104 149
e 105 106
e 105 110
e 105 113
e 105 116
e 105 117
e 105 121
e 105 123
e 105 126
e 105 130
e 105 131
e 105 134
e 105 136
e 105 138
e 105 139
e 105 147
e 105 148
e 106 107
e 106 108
e 106 109
e 106 112
e 106 118
e 106 122
e 106 126
e 106 128
e 106 130
e 106 146
e 106 147
e 107 108
e 107 112
e 107 118
e 107 126
e 107 127
e 107 129
e 107 130
e 107 134
e 107 136
e 107 143
e 107 144
e 107 150
e 108 112
e 108 114
e 108 115
e 108 116
e 108 123
e 108 130
e 108 133
e 108 134
e 108 136
e 108 137
e 108 138
e 108 140
e 108 143
e 108 144
e 109 114
e 109 115
e 109 118
e 109 120
e 109 125
e 109 127
e 109 129
e 109 130
e 109 132
e 109 136
e 109 143
e 109 144
e 110 114
e 110 117
e 110 121
e 110 127
e 110 128
e 110 129
e 110 135
e 110 143
e 110 144
e 110 145
e 110 149
e 111 113
e 111 118
e 111 121
e 111 127
e 111 138
e 111 140
e 111 143
e 111 148
e 111 150
e 112 119
e 112 120
e 112 125
e 112 126
e 112 128
e 112 129
e 112 131
e 112 134
e 112 138
e 112 141
e 112 145
e 112 146
e 113 119
e 113 128
e 113 135
e 113 139
e 113 144
e 113 145
e 114 124
e 114 128
e 114 130
e 114 133
e 114 134
e 114 139
e 114 141
e 114 143
e 114 146
e 114 148
e 115 118
e 115 122
e 115 125
e 115 126
e 115 136
e 115 138
e 115 143
e 115 145
e 116 117
e 116 118
e 116 121
e 116 129
e 116 133
e 116 136
e 116 137
e 116 139
e 116 140
e 116 143
e 116 149
e 117 125
e 117 127
e 117 128
e 117 131
e 117 133
e 117 138
e 117 142
e 117 149
e 118 119
e 118 121
e 118 122
e 118 126
e 118 135
e 118 140
e 118 141
e 118 142
e 118 147
e 118 148
e 118 150
e 119 122
e 119 128
e 119 130
e 119 134
e 119 139
e 119 143
e 119 146
e 119 147
e 119 150
e 120 121
e 120 124
e 120 127
e 120 129
e 120 137
e 120 141
e 120 143
e 120 144
e 120 147
e 120 148
e 121 122
e 121 123
e 121 127
e 121 128
e 121 131
e 121 133
e 121 135
e 121 140
e 121 142
e 121 144
e 121 148
e 122 124
e 122 133
e 122 135
e 122 136
e 122 139
e 122 143
e 122 144
e 122 146
e 122 147
e 122 150
e 123 128
e 123 130
e 123 133
e 123 135
e 123 139
e 123 140
e 123 143
e 123 148
e 124 127
e 124 132
e 124 136
e 124 139
e 124 143
e 124 147
e 125 126
e 125 129
e 125 131
e 125 133
e 125 134
e 125 135
e 125 137
e 125 138
e 125 140
e 125 143
e 125 144
e 125 145
e 125 147
e 126 134
e 126 136
e 126 142
e 127 128
e 127 131
e 127 132
e 127 134
e 127 135
e 127 141
e 127 143
e 128 130
e 128 135
e 128 136
e 128 138
e 128 140
e 128 142
e 128 145
e 128 149
e 129 130
e 129 142
e 129 143
e 129 150
e 130 135
e 130 136
e 130 138
e 130 141
e 130 145
e 130 147
e 131 136
e 131 140
e 131 144
e 131 147
e 131 149
e 132 138
e 132 144
e 132 146
e 132 149
e 133 136
e 133 138
e 133 140
e 133 143
e 133 147
e 133 148
e 133 149
e 134 136
e 134 138
e 134 139
e 134 141
e 134 144
e 134 145
e 135 137
e 135 138
e 135 144
e 135 149
e 136 137
e 136 138
e 136 143
e 136 145
e 136 146
e 136 148
e 137 142
e 137 144
e 137 145
e 137 150
e 138 140
e 138 144
e 138 148
e 138 150
e 139 141
e 139 142
e 139 145
e 139 148
e 139 149
e 139 150
e 141 143
e 141 149
e 142 143
e 142 146
e 142 147
e 142 148
e 143 146
e 144 149
e 144 150
e 145 146
e 146 150
e 147 148
